This is Ipopt version 3.10.1, running with linear solver mumps.

Number of nonzeros in equality constraint Jacobian...:      236
Number of nonzeros in inequality constraint Jacobian.:        0
Number of nonzeros in Lagrangian Hessian.............:     5892

Total number of variables............................:      120
                     variables with only lower bounds:        0
                variables with lower and upper bounds:      120
                     variables with only upper bounds:        0
Total number of equality constraints.................:       59
Total number of inequality constraints...............:        0
        inequality constraints with only lower bounds:        0
   inequality constraints with lower and upper bounds:        0
        inequality constraints with only upper bounds:        0

iter    objective    inf_pr   inf_du lg(mu)  ||d||  lg(rg) alpha_du alpha_pr  ls
   0 -2.5799820e-03 1.45e-02 1.78e-03  -1.0 0.00e+00    -  0.00e+00 0.00e+00   0
   1 -3.1373803e-03 6.66e-16 8.73e-03  -1.7 3.78e-02    -  9.38e-01 1.00e+00f  1
   2 -3.1744021e-03 1.76e-10 1.27e-05  -2.5 2.57e-02    -  1.00e+00 1.00e+00f  1
   3 -4.3673604e-03 2.22e-16 1.23e-03  -3.8 6.21e-02    -  8.78e-01 1.00e+00f  1
   4 -1.6228380e-02 2.80e-12 1.04e-02  -5.7 6.28e-01  -2.0 2.91e-01 3.13e-01f  1
   5 -1.9292946e-02 1.39e-12 1.10e-02  -5.7 4.01e-02  -0.7 9.52e-01 5.05e-01f  1
   6 -2.6871277e-02 4.23e-12 2.52e-02  -5.7 4.60e-01  -1.1 7.53e-01 1.06e-01f  1
   7 -3.0814021e-02 5.24e-12 1.50e-02  -5.7 7.41e-02  -0.7 1.00e+00 3.81e-01f  1
   8 -4.4611100e-02 9.48e-12 3.08e-02  -5.7 1.00e+00  -1.2 2.83e-01 7.22e-02f  1
   9 -4.8550527e-02 1.03e-11 3.26e-02  -5.7 1.53e-01  -0.8 1.00e+00 1.04e-01f  1
iter    objective    inf_pr   inf_du lg(mu)  ||d||  lg(rg) alpha_du alpha_pr  ls
  10 -5.3254447e-02 7.87e-12 1.88e-02  -5.7 3.96e-02  -0.3 1.00e+00 4.86e-01f  1
  11 -6.2606858e-02 9.50e-12 4.63e-02  -5.7 2.03e-01  -0.8 9.61e-01 1.88e-01f  1
  12 -6.4719944e-02 9.02e-12 2.53e-02  -5.7 5.19e-02  -0.4 1.00e+00 1.53e-01f  1
  13 -7.2088760e-02 8.48e-12 5.09e-02  -5.7 4.70e-01  -0.9 4.23e-01 5.99e-02f  1
  14 -7.7997720e-02 6.08e-12 2.73e-02  -5.7 6.84e-02  -0.4 1.00e+00 2.84e-01f  1
  15 -5.5300754e-02 5.82e-12 4.86e-02  -5.7 3.93e+00  -0.9 6.14e-03 4.17e-02h  1
  16 -5.5452481e-02 6.02e-12 2.95e-02  -5.7 4.89e-02  -0.5 1.00e+00 2.50e-02f  4
  17 -5.5561554e-02 6.09e-12 4.38e-02  -5.7 1.67e-01  -1.0 8.42e-01 4.52e-03f  7
  18 -6.2505482e-02 2.22e-16 1.22e-02  -5.7 4.49e-02  -0.6 8.21e-01 1.00e+00f  1
  19 -6.9555421e-02 2.22e-16 1.69e-02  -5.7 3.77e-01  -1.0 3.41e-01 1.04e-01f  1
iter    objective    inf_pr   inf_du lg(mu)  ||d||  lg(rg) alpha_du alpha_pr  ls
  20 -8.4180198e-02 7.74e-12 1.76e-02  -5.7 6.86e-02  -0.6 7.69e-01 9.77e-01f  1
  21 -8.8918622e-02 3.44e-12 1.83e-02  -5.7 2.90e-02  -0.2 1.00e+00 5.56e-01f  1
  22 -9.7173770e-02 8.31e-12 2.41e-02  -5.7 1.58e-01  -0.7 6.25e-01 2.07e-01f  1
  23 -1.0951767e-01 9.77e-13 2.84e-02  -5.7 4.60e-02  -0.2 1.00e+00 8.82e-01f  1
  24 -1.1023015e-01 9.72e-13 4.25e-02  -5.7 5.54e-01  -0.7 2.49e-01 4.50e-03f  1
  25 -1.1244078e-01 2.03e-12 3.07e-02  -5.7 6.98e-02  -0.3 1.00e+00 1.07e-01f  1
  26 -1.2009299e-01 5.49e-12 5.39e-02  -5.7 7.81e-01  -0.8 2.43e-01 3.71e-02f  1
  27 -1.2662373e-01 4.28e-12 3.69e-02  -5.7 9.74e-02  -0.3 1.00e+00 2.21e-01f  1
  28 -1.3462212e-01 8.14e-12 5.87e-02  -5.7 1.39e+01  -0.8 1.31e-02 2.15e-03f  1
  29 -1.3767491e-01 7.47e-12 4.23e-02  -5.7 1.18e-01  -0.4 1.00e+00 8.31e-02f  1
iter    objective    inf_pr   inf_du lg(mu)  ||d||  lg(rg) alpha_du alpha_pr  ls
  30 -1.4843404e-01 7.41e-12 4.03e-02  -5.7 7.23e+00  -0.9 9.29e-03 7.50e-03f  1
  31 -1.5019036e-01 7.04e-12 6.43e-02  -5.7 1.06e-01  -0.4 6.14e-01 5.01e-02f  1
  32 -1.5018970e-01 7.04e-12 5.94e-02  -5.7 1.03e+01  -0.9 4.67e-03 2.71e-05h  1
  33 -1.5690888e-01 5.26e-12 4.01e-02  -5.7 9.33e-02  -0.5 5.96e-03 2.53e-01f  1
  34 -1.5690075e-01 5.25e-12 1.00e-01  -5.7 2.68e+00  -0.1 1.53e-02 4.19e-05f 10
  35 -1.6851412e-01 1.02e-11 4.78e-02  -5.7 9.63e-02  -0.5 9.06e-01 3.78e-01f  1
  36 -1.6921466e-01 1.02e-11 4.73e-02  -5.7 5.97e+00  -1.0 6.28e-04 1.35e-03f  1
  37 -1.7592863e-01 7.52e-12 2.88e-02  -5.7 1.07e-01  -0.6 5.00e-01 2.63e-01f  1
  38 -1.7684589e-01 7.10e-12 8.44e-02  -5.7 2.52e-02  -0.2 1.00e+00 1.27e-01f  1
  39 -1.8065629e-01 7.31e-12 6.64e-02  -5.7 9.18e-02  -0.6 6.62e-01 1.78e-01f  1
iter    objective    inf_pr   inf_du lg(mu)  ||d||  lg(rg) alpha_du alpha_pr  ls
  40 -1.8619902e-01 8.71e-12 1.49e-02  -5.7 2.35e-02  -0.2 1.00e+00 8.90e-01f  1
  41 -1.9023651e-01 7.29e-12 4.73e-02  -5.7 1.06e-01  -0.7 1.00e+00 1.63e-01f  1
  42 -1.9375810e-01 7.27e-12 4.68e-02  -5.7 1.14e+01  -1.2 3.63e-03 3.32e-03f  1
  43 -1.9374280e-01 7.26e-12 3.12e-01  -5.7 2.72e+00  -0.7 1.71e-01 2.89e-04f  9
  44 -1.9383757e-01 7.19e-12 3.98e-02  -5.7 3.50e-02  -0.3 1.00e+00 1.05e-02f  1
  45 -2.1161221e-01 9.51e-12 5.57e-02  -5.7 1.91e-01  -0.8 1.00e+00 3.69e-01f  1
  46 -2.1621362e-01 9.35e-12 1.48e-01  -5.7 1.31e+00  -1.3 2.40e-01 1.61e-02f  1
  47 -2.4427048e-01 3.46e-12 5.16e-02  -5.7 1.72e-01  -0.8 9.81e-01 6.30e-01f  1
  48 -2.4639980e-01 3.41e-12 1.37e-01  -5.7 9.15e-01  -1.3 3.26e-01 1.47e-02f  1
  49 -2.5253300e-01 5.90e-12 1.21e-01  -5.7 3.92e-01  -0.9 6.58e-01 6.32e-02f  1
iter    objective    inf_pr   inf_du lg(mu)  ||d||  lg(rg) alpha_du alpha_pr  ls
  50 -2.5267711e-01 5.90e-12 1.91e-01  -5.7 1.05e+00  -1.4 2.45e-01 7.50e-04f  1
  51 -2.5981389e-01 6.86e-12 1.57e-01  -5.7 2.37e-01  -0.9 2.89e-01 1.32e-01f  1
  52 -2.6441895e-01 9.58e-12 6.18e-02  -5.7 9.37e-02  -0.5 1.00e+00 2.89e-01f  1
  53 -2.7923627e-01 7.23e-12 1.08e-01  -5.7 2.78e-01  -1.0 6.50e-01 2.45e-01f  1
  54 -2.8296392e-01 4.87e-12 5.58e-02  -5.7 4.95e-02  -0.6 1.00e+00 3.26e-01f  1
  55 -2.9539446e-01 1.99e-12 5.29e-02  -5.7 9.53e-02  -1.0 1.00e+00 5.91e-01f  1
  56 -3.0191170e-01 3.46e-13 9.10e-03  -5.7 3.59e-02  -0.6 1.00e+00 8.26e-01f  1
  57 -3.1163863e-01 7.24e-12 4.35e-02  -5.7 1.99e-01  -1.1 4.96e-03 2.86e-01f  1
  58 -3.1231008e-01 6.12e-12 1.06e-01  -5.7 5.79e-02  -0.7 1.00e+00 9.66e-02f  1
  59 -3.2297609e-01 4.61e-12 1.51e-01  -5.7 1.92e-01  -1.1 1.07e-02 2.47e-01f  1
iter    objective    inf_pr   inf_du lg(mu)  ||d||  lg(rg) alpha_du alpha_pr  ls
  60 -3.2752389e-01 3.09e-12 1.10e-01  -5.7 5.22e-02  -0.7 1.00e+00 3.30e-01f  1
  61 -3.7749594e-01 1.44e-12 7.39e-02  -5.7 2.94e-01  -1.2 4.85e-01 5.33e-01f  1
  62 -3.9512431e-01 8.19e-13 5.19e-02  -5.7 1.19e-01  -0.8 3.05e-01 4.32e-01f  1
  63 -4.1509486e-01 7.98e-13 5.69e-02  -5.7 2.72e+00  -1.3 2.24e-02 2.55e-02f  1
  64 -4.1848782e-01 5.95e-13 7.27e-02  -5.7 1.47e-01  -0.8 7.25e-02 2.55e-01f  1
  65 -4.2568333e-01 8.57e-12 5.94e-02  -5.7 6.36e-02  -0.4 1.00e+00 3.07e-01f  1
  66 -4.2971094e-01 8.50e-12 5.89e-02  -5.7 3.67e+00  -0.9 9.60e-03 7.67e-03f  1
  67 -4.3291974e-01 8.47e-12 4.69e-02  -5.7 1.24e+01    -  2.37e-04 3.55e-03f  1
  68 -4.3320390e-01 7.57e-12 4.09e-02  -5.7 1.98e-01    -  7.30e-02 1.06e-01f  1
  69 -4.3336184e-01 7.57e-12 4.04e-02  -5.7 2.07e+00    -  1.39e-05 1.02e-03f  1
iter    objective    inf_pr   inf_du lg(mu)  ||d||  lg(rg) alpha_du alpha_pr  ls
  70 -4.3372554e-01 7.99e-12 8.17e-02  -5.7 6.84e-02  -0.5 1.00e+00 2.98e-02f  1
  71 -4.3426518e-01 9.76e-12 5.81e-02  -5.7 1.12e-02  -0.0 1.00e+00 3.44e-01f  1
  72 -4.4118939e-01 1.58e-11 1.49e-02  -5.7 4.50e-02  -0.5 1.00e+00 9.47e-01f  1
  73 -4.3506948e-01 1.51e-11 9.90e-02  -5.7 3.86e+00  -1.0 5.02e-03 4.19e-02h  1
  74 -4.3506123e-01 1.51e-11 1.27e-01  -5.7 5.69e-02  -1.5 3.36e-01 9.02e-04f 10
  75 -4.3912676e-01 2.22e-16 7.88e-02  -5.7 1.87e-02  -0.1 4.85e-01 1.00e+00f  1
  76 -4.3103770e-01 9.99e-16 1.12e-02  -5.7 5.92e-02    -  7.30e-01 1.00e+00h  1
  77 -4.3097998e-01 7.77e-16 9.00e-03  -5.7 2.73e-02    -  1.99e-01 1.99e-01s 20
  78 -4.3099062e-01 5.60e-13 8.88e-03  -5.7 2.56e-02  -0.6 1.32e-02 1.32e-02s 20
  79 -4.3096897e-01 5.40e-13 8.57e-03  -5.7 2.28e-02  -1.1 3.54e-02 3.54e-02s 20
iter    objective    inf_pr   inf_du lg(mu)  ||d||  lg(rg) alpha_du alpha_pr  ls
  80 -4.3092959e-01 4.52e-13 7.18e-03  -5.7 1.67e-02    -  1.63e-01 1.63e-01s 20
  81 -4.3084084e-01 8.88e-16 1.85e-04  -5.7 1.46e-02    -  1.00e+00 1.00e+00s 20
  82 -4.3084467e-01 4.44e-16 2.00e-03  -5.7 7.19e-04    -  1.00e+00 0.00e+00S 20
  83 -4.3084462e-01 4.44e-16 2.46e-03  -5.7 1.28e-05    -  1.00e+00 2.50e-01h  3
  84 -4.3084450e-01 3.33e-16 1.15e-06  -5.7 5.18e-06  -0.7 1.00e+00 1.00e+00h  1
  85 -4.3102497e-01 4.44e-16 2.54e-04  -8.6 4.28e-04  -0.2 1.00e+00 9.93e-01f  1
  86 -4.3102831e-01 5.55e-16 5.73e-04  -8.6 5.74e-04    -  1.00e+00 9.07e-01f  1
  87 -4.3102849e-01 6.66e-16 2.19e-09  -8.6 4.21e-05    -  1.00e+00 1.00e+00f  1

Number of Iterations....: 87

                                   (scaled)                 (unscaled)
Objective...............:  -4.3102849145599315e-01   -4.3102849145599315e-01
Dual infeasibility......:   2.1944687107691473e-09    2.1944687107691473e-09
Constraint violation....:   6.6613381477509392e-16    6.6613381477509392e-16
Complementarity.........:   2.8073144115924107e-09    2.8073144115924107e-09
Overall NLP error.......:   2.8073144115924107e-09    2.8073144115924107e-09


Number of objective function evaluations             = 152
Number of objective gradient evaluations             = 88
Number of equality constraint evaluations            = 152
Number of inequality constraint evaluations          = 0
Number of equality constraint Jacobian evaluations   = 1
Number of inequality constraint Jacobian evaluations = 0
Number of Lagrangian Hessian evaluations             = 87
Total CPU secs in IPOPT (w/o function evaluations)   =      0.400
Total CPU secs in NLP function evaluations           =      6.210

EXIT: Optimal Solution Found.
